50
    27    50    98    47    63    63    37    51    16    55    52     6    83    80     9    99    25    83    91    55    70    96    96    43    11    46    36    71     6    49    41    86    81    10    56    78    24    26    41    76    92    86    71    52     5    67    38    16    51    38
     1     2     4     3     6     2     5     1     9     8     1     8     2     3     4     8     6     9     2     6     4     5     8     1     5     5    10     3     1     3     8     6     2    10     9     3     9     1     5     3    10     2     1     4     6     4     9     7     6     6
  1052   882   901  1162  1227  1182  1103   960   938   870  1092  1275   877   821  1213  1318   851   904  1098   867   985   952  1008  1113  1078   947  1309  1006  1283   936  1181  1272   931  1211  1269  1289  1322  1174  1323   988   858  1099  1270   899  1000   996   970   888   866  1319
